100
    1   485   485
    2    94    94
    3   326   326
    4     6     6
    5   248   248
    6   416   416
    7   421   421
    8   492   492
    9   322   322
   10   149   149
   11   295   295
   12   237   237
   13    43    43
   14   457   457
   15   345   345
   16   315   315
   17   455   455
   18   446   446
   19   252   252
   20   422   422
   21     9     9
   22   291   291
   23   401   401
   24   359   359
   25   122   122
   26   167   167
   27    94    94
   28    98    98
   29   238   238
   30     7     7
   31    74    74
   32    44    44
   33   215   215
   34   334   334
   35   382   382
   36   266   266
   37   367   367
   38   494   494
   39   484   484
   40   393   393
   41   299   299
   42   133   133
   43   433   433
   44   131   131
   45   182   182
   46   428   428
   47    72    72
   48   200   200
   49   374   374
   50   117   117
   51   138   138
   52   374   374
   53   356   356
   54   220   220
   55   145   145
   56   419   419
   57   495   495
   58   294   294
   59    29    29
   60   196   196
   61   199   199
   62   497   497
   63   277   277
   64   116   116
   65    97    97
   66   408   408
   67   219   219
   68    39    39
   69   242   242
   70   207   207
   71   107   107
   72    69    69
   73   122   122
   74    37    37
   75    70    70
   76   431   431
   77    98    98
   78   226   226
   79   100   100
   80   487   487
   81   145   145
   82   272   272
   83   267   267
   84    13    13
   85   472   472
   86    81    81
   87   395   395
   88   443   443
   89   213   213
   90    58    58
   91   248   248
   92   303   303
   93   487   487
   94   264   264
   95   423   423
   96    36    36
   97    29    29
   98   224   224
   99   174   174
  100   289   289
4164
